56
8
33
8
28
13
28
39
14
0
13
13
0
0
69
27
46
15
18
8
26
0
24
0
0
36
0
0
30
12
13
9
101
38
21
0
12
0
23
26
49
0
17
0
32
9
10
0
24
10
31
19
12
13
38
9
24
19
13
18
17
101
0
7
17
11
28
10
13
0
0
13
15
7
12
22
11
0
82
31
10
0
0
0
0
16
34
11
54
0
0
34
16
19
0
31
18
11
22
15
